TYPE : Vertex Cover
DIMENSION: 35
EDGE_DATA_SECTION:
0 26
0 29
0 33
1 23
1 29
1 31
1 34
2 22
2 30
3 10
3 17
4 9
4 15
5 14
5 33
5 34
6 11
6 20
6 25
8 24
8 28
8 32
8 34
9 33
10 18
10 22
10 24
10 33
11 14
11 18
11 30
12 17
12 21
12 24
12 31
13 23
13 31
13 32
15 30
15 34
17 21
17 32
18 26
18 34
19 22
19 26
21 22
21 23
21 28
21 31
21 32
22 29
23 30
23 31
23 34
24 30
24 31
25 33
26 30
26 33
28 30
31 33
-1
VERTEX_DEGREE:
3.0 4.0 2.0 2.0 2.0 3.0 3.0 0.0 4.0 2.0 5.0 4.0 4.0 3.0 2.0 3.0 0.0 4.0 4.0 2.0 1.0 7.0 5.0 6.0 5.0 2.0 5.0 0.0 3.0 3.0 7.0 7.0 4.0 7.0 6.0
VERTEX_COVER:
4 6 10 11 14 17 21 22 23 24 26 28 29 30 31 32 33 34
EOF
